150 7259
1 98 103 34 63 10 21 150 115 71 44 64 112 136 145 49 144 147 72 80 14 79 121 88 94 96 30 89 8 84 7 82 95 107 5 143 100 97 142 85 18 75 26 146 124 35 93 52 126 33 105 111 16 59 78 15 133 77 122 131 32 23 38 67 134 138 92 54 46 90 56 83 65 132 137 102 114 99 19 2 37 6 28 9 42 40 53 139 120 47 110 81 29 86 108 70 135 50 55 58 141 25 20 51 109 43 12 24 118 127 69 36 61 11 148 130 60 66 17 140 117 57 39 116 101 41 129 27 31 123 74 13 106 91 119 68 128 45 4 104 22 125 149 62 3 113 48 73 76 87 
